(declare-fun temp914_1 () (_ BitVec 64))
(declare-fun var201290 () (_ BitVec 64))
(declare-fun var201292 () (_ BitVec 64))
(declare-fun temp914_2 () (_ BitVec 64))
(declare-fun var332362 () (_ BitVec 64))
(declare-fun var332364 () (_ BitVec 64))
(declare-fun temp914_3 () (_ BitVec 64))
(declare-fun var733184 () (_ BitVec 64))
(declare-fun k!0 () Bool)
(declare-fun ARGNAME_input_NAMEEND_DIM () (_ BitVec 64))
(declare-fun ARGNAME_dims_NAMEEND_LEN () (_ BitVec 64))
(declare-fun temp914_5 () (_ BitVec 64))
(declare-fun temp914_4 () (_ BitVec 64))
(declare-fun temp914_6 () (_ BitVec 64))
(declare-fun var987722 () (_ BitVec 64))
(declare-fun var987724 () (_ BitVec 64))
(declare-fun temp914_8 () (_ BitVec 64))
(declare-fun temp914_7 () (_ BitVec 64))
(declare-fun temp914_9 () (_ BitVec 64))
(declare-fun var1905226 () (_ BitVec 64))
(declare-fun var1905228 () (_ BitVec 64))
(declare-fun temp914_11 () (_ BitVec 64))
(declare-fun temp914_10 () (_ BitVec 64))
(declare-fun temp914_12 () (_ BitVec 64))
(declare-fun var3617326 () (_ BitVec 64))
(declare-fun var3814010 () (_ BitVec 64))
(declare-fun temp914_14 () (_ BitVec 64))
(declare-fun temp914_13 () (_ BitVec 64))
(declare-fun var4001090 () (_ BitVec 64))
(declare-fun temp914_15 () (_ BitVec 64))
(declare-fun temp914_16 () (_ BitVec 64))
(declare-fun var4066631 () (_ BitVec 64))
(declare-fun var4132178 () (_ BitVec 64))
(assert (= temp914_1 #x0000000000000005))
(assert (= var201290 temp914_1))
(assert (= var201292 var201290))
(assert (= temp914_2 #x0000000000000005))
(assert (= var332362 temp914_2))
(assert (= var332364 var332362))
(assert (= var733184
   (ite (= ARGNAME_input_NAMEEND_DIM ARGNAME_dims_NAMEEND_LEN)
        #x0000000000000001
        #x0000000000000000)))
(assert (= temp914_3 #x0000000000000001))
(assert (= var733184 temp914_3))
(assert (= temp914_5 #x0000000000000000))
(assert (= temp914_4 temp914_5))
(assert (= temp914_6 #x0000000000000005))
(assert (= var987722 temp914_6))
(assert (= var987724 var987722))
(assert (= temp914_8 #x0000000000000000))
(assert (= temp914_7 temp914_8))
(assert (= temp914_9 #x0000000000000005))
(assert (= var1905226 temp914_9))
(assert (= var1905228 var1905226))
(assert (= temp914_11 #x0000000000000000))
(assert (= temp914_10 temp914_11))
(assert (= temp914_12 #x0000000000000000))
(assert (= var3617326
   (ite (distinct temp914_10 temp914_12) #x0000000000000001 #x0000000000000000)))
(assert (= var3814010 var3617326))
(assert (= temp914_14 #x0000000000000000))
(assert (= temp914_13 temp914_14))
(assert (= var4001090
   (ite (bvslt temp914_13 ARGNAME_input_NAMEEND_DIM)
        #x0000000000000001
        #x0000000000000000)))
(assert (= temp914_15
   (ite (= var4001090 #x0000000000000001) ARGNAME_input_NAMEEND_DIM temp914_13)))
(assert (= temp914_16 #x0000000000000000))
(assert (= var4066631 temp914_16))
(assert (= var4132178 var4066631))
(model-add temp914_1 () (_ BitVec 64) #x0000000000000005)
(model-add var201290 () (_ BitVec 64) #x0000000000000005)
(model-add var201292 () (_ BitVec 64) #x0000000000000005)
(model-add temp914_2 () (_ BitVec 64) #x0000000000000005)
(model-add var332362 () (_ BitVec 64) #x0000000000000005)
(model-add var332364 () (_ BitVec 64) #x0000000000000005)
(model-add temp914_3 () (_ BitVec 64) #x0000000000000001)
(model-add var733184 () (_ BitVec 64) #x0000000000000001)
(model-del k!0)
(model-add ARGNAME_input_NAMEEND_DIM
           ()
           (_ BitVec 64)
           (ite k!0 ARGNAME_dims_NAMEEND_LEN (bvnot ARGNAME_dims_NAMEEND_LEN)))






